# 3.4.21.68_group0_PF00089_30-85~3.4.21.9_group0_PF00089_30-85.sdpA
# All alignment positions within 5\AA of a ligand/cat site passing the sdpA filter.  Column indices start with 0.
48
89
94
140
221
222
243
